c CNF-Signature AND_24
c 
c $p 24 1
c $m (1,2,3,4,5,6,7,8,9,10,11,12,13,14,15,16,17,18,19,20,21,22,23,24,25)
c $i 1
c $i 2
c $i 3
c $i 4
c $i 5
c $i 6
c $i 7
c $i 8
c $i 9
c $i 10
c $i 11
c $i 12
c $i 13
c $i 14
c $i 15
c $i 16
c $i 17
c $i 18
c $i 19
c $i 20
c $i 21
c $i 22
c $i 23
c $i 24
c $o 25
p cnf 25 25
1 -25 0
2 -25 0
3 -25 0
4 -25 0
5 -25 0
6 -25 0
7 -25 0
8 -25 0
9 -25 0
10 -25 0
11 -25 0
12 -25 0
13 -25 0
14 -25 0
15 -25 0
16 -25 0
17 -25 0
18 -25 0
19 -25 0
20 -25 0
21 -25 0
22 -25 0
23 -25 0
24 -25 0
-1 -2 -3 -4 -5 -6 -7 -8 -9 -10 -11 -12 -13 -14 -15 -16 -17 -18 -19 -20 -21 -22 -23 -24 25 0
